
List of user-set options:

                                    Name   Value                used
                           compl_inf_tol = 1                     yes
                         constr_viol_tol = 1                     yes
                            dual_inf_tol = 1000                  yes
                           linear_solver = ma97                  yes
                              ma86_small = 1e-30                  no
                                  ma86_u = 0.0001                 no
                              ma97_order = best                  yes
                              ma97_small = 1e-30                 yes
                            ma97_switch1 = at_start              yes
                            ma97_switch2 = od_hd_reuse           yes
                                  ma97_u = 1e-06                 yes
                               ma97_umax = 0.5                   yes
                                max_iter = 2000                  yes
                    max_refinement_steps = 20                    yes
                    min_refinement_steps = 5                     yes
                                 mu_init = 1e-06                 yes
           mu_superlinear_decrease_power = 1.25                  yes
                   nlp_scaling_min_value = 1e-08                 yes
                        option_file_name = Preset_Case:_178_NCP.opt  yes
                             output_file = ./tmp/Preset_Case:_178_NCP.output  yes
                      print_user_options = yes                   yes
        required_infeasibility_reduction = 1                      no
                                     tol = 1e-08                 yes
                   warm_start_bound_frac = 1e-20                 yes
                   warm_start_bound_push = 1e-20                 yes
                   warm_start_init_point = yes                   yes
              warm_start_mult_bound_push = 1e-20                 yes
                warm_start_mult_init_max = 1e+40                 yes
             warm_start_slack_bound_frac = 1e-20                 yes
             warm_start_slack_bound_push = 1e-20                 yes

******************************************************************************
This program contains Ipopt, a library for large-scale nonlinear optimization.
 Ipopt is released as open source code under the Eclipse Public License (EPL).
         For more information visit http://projects.coin-or.org/Ipopt
******************************************************************************

This is Ipopt version 3.12.10, running with linear solver ma97.

Number of nonzeros in equality constraint Jacobian...:   117140
Number of nonzeros in inequality constraint Jacobian.:      213
Number of nonzeros in Lagrangian Hessian.............:    47462

Total number of variables............................:    29971
                     variables with only lower bounds:    11312
                variables with lower and upper bounds:    15132
                     variables with only upper bounds:        0
Total number of equality constraints.................:    29864
Total number of inequality constraints...............:       25
        inequality constraints with only lower bounds:        4
   inequality constraints with lower and upper bounds:        0
        inequality constraints with only upper bounds:       21

iter    objective    inf_pr   inf_du lg(mu)  ||d||  lg(rg) alpha_du alpha_pr  ls
   0 -4.1414175e-02 2.09e-01 4.71e+01  -6.0 0.00e+00    -  0.00e+00 0.00e+00   0
   1 -4.1412699e-02 2.09e-01 4.71e+01  -6.0 5.43e+05  -2.0 3.27e-08 2.59e-08f  1
   2 -4.1412699e-02 2.09e-01 4.24e+05  -6.0 7.96e+00  -2.5 4.26e-03 5.87e-06f  1
   3 -4.1412664e-02 2.09e-01 6.06e+04  -6.0 3.96e+02  -2.1 2.08e-05 3.00e-06h  2
   4 -4.1413178e-02 2.09e-01 6.22e+04  -6.0 3.80e+02  -2.5 1.76e-04 4.49e-05h  1
   5 -4.1414023e-02 2.09e-01 6.36e+04  -6.0 4.19e+02  -2.1 4.49e-05 7.32e-05h  1
   6 -4.1423175e-02 2.09e-01 6.34e+04  -6.0 3.76e+02  -2.6 2.25e-04 4.78e-04h  1
   7 -4.1426007e-02 2.09e-01 6.33e+04  -6.0 4.28e+02  -2.2 4.25e-04 2.49e-04f  1
   8 -4.1456117e-02 2.09e-01 6.32e+04  -6.0 3.85e+02  -2.6 9.86e-04 1.41e-03f  1
   9 -4.1468638e-02 2.09e-01 6.31e+04  -6.0 4.44e+02  -2.2 9.42e-03 1.04e-03h  1
iter    objective    inf_pr   inf_du lg(mu)  ||d||  lg(rg) alpha_du alpha_pr  ls
  10 -4.1770309e-02 6.18e-01 6.20e+04  -6.0 4.34e+02  -2.7 3.87e-03 1.30e-02f  1
  11 -4.1772791e-02 6.18e-01 1.36e+05  -6.0 5.84e+02  -2.3 4.52e-02 3.93e-04h  1
  12 -4.1935785e-02 1.20e+00 1.54e+05  -6.0 5.69e+02  -2.7 5.30e-02 2.49e-02h  1
  13 -4.1887671e-02 1.20e+00 1.69e+05  -6.0 5.37e+02  -2.3 1.15e-02 4.77e-03h  2
  14 -4.1873124e-02 1.20e+00 1.68e+05  -6.0 3.99e+02  -2.8 1.45e-02 8.59e-04h  4
  15 -4.1830111e-02 1.20e+00 2.14e+05  -6.0 4.67e+02  -2.4 3.49e-02 3.05e-03h  2
  16 -4.1819658e-02 1.20e+00 2.12e+05  -6.0 3.40e+02  -2.8 5.85e-03 5.43e-04h  4
  17 -4.1772667e-02 1.20e+00 2.20e+05  -6.0 4.26e+02  -2.4 1.28e-02 3.45e-03h  1
  18 -4.1760983e-02 1.20e+00 2.19e+05  -6.0 4.10e+02  -2.9 1.82e-03 3.41e-04h  7
  19 -4.1742351e-02 1.19e+00 2.20e+05  -6.0 4.40e+02  -2.5 1.98e-03 8.16e-04h  1
iter    objective    inf_pr   inf_du lg(mu)  ||d||  lg(rg) alpha_du alpha_pr  ls
  20 -4.1731245e-02 1.19e+00 2.02e+05  -6.0 4.80e+02  -2.9 2.17e-02 3.17e-04f  7
  21 -4.1705669e-02 1.19e+00 2.03e+05  -6.0 4.22e+02  -2.5 3.73e-03 1.09e-03h  6
  22 -4.1700329e-02 1.19e+00 1.86e+05  -6.0 5.71e+02  -3.0 1.66e-02 1.55e-04h  8
  23 -4.1687609e-02 1.19e+00 1.88e+05  -6.0 4.02e+02  -2.6 5.76e-03 5.28e-04h  2
  24 -4.1685099e-02 1.19e+00 1.70e+05  -6.0 7.02e+02  -3.0 1.46e-02 7.52e-05h  9
  25 -4.1523269e-02 1.21e+00 1.68e+05  -6.0 3.86e+02  -2.6 6.47e-03 6.47e-03s 17
  26r-4.1523269e-02 1.21e+00 1.00e+03  -0.5 0.00e+00  -3.1 0.00e+00 0.00e+00R  1
  27r-4.1530712e-02 1.21e+00 1.75e+03  -0.5 3.27e+04    -  4.26e-06 1.38e-06f  1
  28 -4.1530710e-02 1.21e+00 2.00e+03  -6.0 3.70e+02    -  3.62e-03 9.11e-07h  2
  29 -4.1540276e-02 1.21e+00 3.90e+04  -6.0 5.06e+02    -  4.29e-02 8.69e-04h  1
iter    objective    inf_pr   inf_du lg(mu)  ||d||  lg(rg) alpha_du alpha_pr  ls
  30 -4.1521929e-02 1.21e+00 1.37e+04  -6.0 5.02e+02    -  9.44e-03 5.43e-02h  1
  31 -4.1938891e-02 1.12e+00 2.35e+04  -6.0 3.76e+02    -  9.46e-02 7.65e-02h  1
  32 -4.2311472e-02 1.05e+00 8.14e+04  -6.0 2.53e+02    -  1.40e-01 7.95e-02h  1
  33 -4.2311577e-02 1.05e+00 2.08e+05  -6.0 1.84e+02    -  1.34e-01 3.04e-05h  1
  34 -4.2558921e-02 1.01e+00 3.63e+05  -6.0 1.83e+02    -  2.99e-01 8.16e-02f  1
  35 -4.2559122e-02 1.01e+00 3.72e+05  -6.0 3.18e+02    -  3.26e-03 1.33e-05h  1
  36 -4.2582195e-02 1.00e+00 3.46e+05  -6.0 1.36e+02    -  4.15e-03 3.01e-02h  3
  37 -4.2586098e-02 9.94e-01 3.56e+05  -6.0 1.28e+02    -  3.11e-02 9.57e-03h  5
  38 -4.2585961e-02 9.92e-01 4.32e+05  -6.0 1.26e+02    -  1.30e-01 2.51e-03h  7
  39 -4.2584874e-02 9.91e-01 4.33e+05  -6.0 1.26e+02    -  2.27e-03 7.77e-04h  9
iter    objective    inf_pr   inf_du lg(mu)  ||d||  lg(rg) alpha_du alpha_pr  ls
  40 -4.2584324e-02 9.91e-01 4.37e+05  -6.0 1.26e+02    -  9.83e-03 3.87e-04h 10
  41 -4.2583364e-02 9.90e-01 4.37e+05  -6.0 1.26e+02    -  2.97e-04 6.34e-04h  4
  42 -4.2583210e-02 9.90e-01 4.37e+05  -6.0 1.18e+02    -  1.62e-05 8.96e-05h  1
  43 -4.2567703e-02 9.81e-01 4.66e+05  -6.0 1.26e+02    -  7.35e-02 1.02e-02h  1
  44 -4.2438447e-02 9.61e-01 4.95e+05  -6.0 1.24e+02    -  1.75e-01 6.09e-02h  2
  45 -4.2228972e-02 9.19e-01 5.13e+05  -6.0 1.24e+02    -  1.80e-01 7.01e-02h  2
  46 -4.1960890e-02 8.61e-01 5.93e+05  -6.0 1.31e+02    -  3.60e-01 8.23e-02h  1
  47 -4.1714586e-02 8.56e-01 1.64e+07  -6.0 2.48e+02    -  2.33e-01 1.07e-01h  3
  48 -4.1478694e-02 8.22e-01 1.59e+07  -6.0 1.95e+02    -  9.25e-02 5.96e-02h  4
  49r-4.1478694e-02 8.22e-01 1.00e+03  -0.6 0.00e+00  -2.7 0.00e+00 4.95e-07R  2
iter    objective    inf_pr   inf_du lg(mu)  ||d||  lg(rg) alpha_du alpha_pr  ls
  50r-4.1245781e-02 8.22e-01 1.00e+03  -0.6 5.99e+04    -  6.89e-07 3.89e-06f  1
  51 -4.1245968e-02 8.22e-01 7.73e+01  -6.0 5.27e+01    -  1.35e-06 1.05e-04h  1
  52 -4.1247517e-02 8.22e-01 3.51e+03  -6.0 7.63e+01    -  6.23e-03 3.56e-04h  1
  53 -4.1248288e-02 8.22e-01 3.65e+03  -6.0 7.37e+01    -  4.58e-04 1.94e-04h  1
  54 -4.1251419e-02 8.21e-01 3.21e+03  -6.0 7.62e+01    -  5.04e-04 1.08e-03h  1
  55 -4.1253094e-02 8.20e-01 1.41e+05  -6.0 7.64e+01    -  8.63e-02 5.74e-04h  1
  56 -4.1310955e-02 8.02e-01 1.04e+05  -6.0 7.73e+01    -  2.53e-03 2.49e-02h  1
  57 -4.1430393e-02 8.00e-01 3.41e+07  -6.0 1.60e+02    -  1.45e-01 4.62e-02h  1
  58 -4.1266592e-02 8.49e-01 2.64e+07  -6.0 2.02e+02    -  8.23e-02 9.86e-02h  1
  59 -4.1233907e-02 8.75e-01 2.76e+07  -6.0 1.53e+02    -  1.48e-01 1.24e-01h  2
iter    objective    inf_pr   inf_du lg(mu)  ||d||  lg(rg) alpha_du alpha_pr  ls
  60 -4.1391626e-02 8.15e-01 3.04e+07  -6.0 6.05e+01    -  2.17e-01 8.76e-02h  1
  61 -4.1508300e-02 7.71e-01 2.86e+07  -6.0 6.93e+01    -  2.01e-01 5.44e-02h  4
  62 -4.1685206e-02 7.34e-01 2.66e+07  -6.0 5.86e+01    -  1.14e-01 4.84e-02h  4
  63 -4.2073101e-02 6.73e-01 2.39e+07  -6.0 5.87e+01    -  2.94e-01 8.57e-02h  3
  64 -4.2617445e-02 6.38e-01 2.27e+07  -6.0 6.40e+01    -  8.55e-02 6.31e-02h  3
  65r-4.2617445e-02 6.38e-01 1.00e+03  -0.7 0.00e+00  -3.1 0.00e+00 3.15e-07R  5
  66r-4.2344479e-02 9.01e-01 1.00e+03  -0.7 4.73e+05    -  1.97e-06 6.20e-06f  1
  67 -4.2344224e-02 9.00e-01 1.70e+02  -6.0 4.30e+01    -  5.36e-02 4.15e-04h  1
  68 -4.2348641e-02 8.92e-01 1.66e+04  -6.0 5.70e+01    -  3.24e-02 8.79e-03h  1
  69 -4.2349164e-02 8.91e-01 4.16e+04  -6.0 5.65e+01    -  3.84e-02 1.19e-03h  1
iter    objective    inf_pr   inf_du lg(mu)  ||d||  lg(rg) alpha_du alpha_pr  ls
  70 -4.2354830e-02 8.64e-01 3.30e+04  -6.0 5.04e+01    -  1.87e-02 3.02e-02h  1
  71 -4.2355187e-02 8.56e-01 2.54e+07  -6.0 7.07e+01    -  6.02e-01 1.03e-02h  1
  72 -4.2333409e-02 6.00e-01 2.06e+07  -6.0 7.00e+01    -  4.28e-02 2.92e-01h  1
  73 -4.2333495e-02 5.99e-01 1.25e+07  -6.0 1.18e+02    -  5.26e-01 1.51e-03h  1
  74 -4.2565636e-02 3.32e-01 5.08e+06  -6.0 1.18e+02    -  5.64e-01 6.95e-01h  1
  75 -4.2588131e-02 3.31e-01 8.57e+06  -6.0 4.98e+02    -  3.62e-02 2.20e-03h  1
  76 -4.2507632e-02 3.28e-01 1.49e+07  -6.0 7.00e+01    -  2.17e-04 2.58e-01h  2
  77 -4.2436270e-02 3.22e-01 6.44e+06  -6.0 4.94e+01    -  2.46e-01 2.46e-02h  1
  78 -4.2441801e-02 3.30e-01 4.52e+06  -6.0 4.22e+01    -  1.93e-01 1.54e-01h  3
  79 -4.2387022e-02 3.33e-01 5.41e+06  -6.0 2.59e+01  -3.6 2.27e-02 3.62e-02h  3
iter    objective    inf_pr   inf_du lg(mu)  ||d||  lg(rg) alpha_du alpha_pr  ls
  80 -4.2408565e-02 3.62e-01 2.40e+06  -6.0 1.40e+01  -4.1 8.15e-03 5.44e-01h  1
  81 -4.2513262e-02 2.61e-01 1.17e+06  -6.0 1.26e+01    -  5.70e-01 5.00e-01h  2
  82 -4.2505382e-02 2.42e-01 9.18e+05  -6.0 1.69e+01    -  1.36e-02 2.13e-01h  3
  83 -4.2520843e-02 1.87e-01 1.04e+05  -6.0 9.89e+00    -  2.84e-01 1.00e+00h  1
  84 -4.1985806e-02 1.14e-01 1.44e+05  -6.0 1.46e+01    -  2.71e-01 6.48e-01h  1
  85r-4.1985806e-02 1.14e-01 1.00e+03  -1.3 0.00e+00    -  0.00e+00 2.83e-07R  3
  86r-4.1962269e-02 1.09e-01 1.00e+03  -1.3 2.72e+03    -  6.62e-05 3.84e-05f  1
  87 -4.1984600e-02 7.85e-02 2.69e+07  -6.0 1.06e+00    -  9.42e-03 2.81e-01h  1
  88 -4.1987114e-02 7.38e-02 2.55e+07  -6.0 9.89e-01    -  1.27e-01 5.91e-02h  1
  89 -4.2000313e-02 5.05e-02 1.73e+07  -6.0 9.29e-01    -  1.93e-01 3.15e-01h  1
iter    objective    inf_pr   inf_du lg(mu)  ||d||  lg(rg) alpha_du alpha_pr  ls
  90 -4.2018982e-02 2.32e-02 7.97e+06  -6.0 6.29e-01    -  5.37e-01 5.39e-01h  1
  91 -4.2055207e-02 6.41e-05 7.98e+00  -6.0 3.01e-01    -  9.37e-01 1.00e+00h  1
  92 -4.2429673e-02 5.47e-03 9.99e+00  -6.0 1.88e+00    -  7.24e-01 1.00e+00h  1
  93 -4.3297455e-02 3.31e-02 3.70e+00  -6.0 7.65e+00    -  6.28e-01 5.76e-01h  1
  94 -4.7233831e-02 6.94e-01 7.44e+00  -6.0 2.32e+01    -  4.83e-01 9.83e-01f  1
  95 -5.2344775e-02 1.11e+00 2.46e+01  -6.0 6.37e+01    -  3.11e-01 5.87e-01h  1
  96 -5.6331231e-02 1.19e+00 1.25e+01  -6.0 1.31e+02    -  4.63e-01 3.29e-01h  1
  97 -6.2978678e-02 1.75e+00 1.44e+01  -6.0 1.84e+02    -  2.51e-01 2.70e-01h  1
  98 -6.3639936e-02 1.68e+00 2.35e+01  -6.0 1.38e+02    -  2.52e-01 4.03e-02h  1
  99 -6.8745877e-02 1.46e+00 2.64e+01  -6.0 1.91e+02    -  3.81e-01 2.63e-01h  1
iter    objective    inf_pr   inf_du lg(mu)  ||d||  lg(rg) alpha_du alpha_pr  ls
 100 -7.0553472e-02 1.40e+00 2.53e+01  -6.0 6.72e+02    -  7.19e-02 6.51e-02h  1
 101 -7.3629755e-02 1.81e+00 2.16e+01  -6.0 1.40e+02    -  1.87e-01 4.24e-01h  1
 102 -7.3719479e-02 1.50e+00 1.79e+01  -6.0 2.71e+00  -4.6 1.91e-01 1.72e-01h  1
 103 -7.3723580e-02 1.49e+00 1.69e+01  -6.0 2.85e+02    -  6.79e-02 2.45e-04h  1
 104 -7.6180334e-02 1.47e+00 4.47e+01  -6.0 2.57e+02    -  6.18e-01 2.89e-01f  1
 105 -7.7574507e-02 1.39e+00 9.06e+01  -6.0 8.03e+02    -  6.07e-01 8.48e-02h  1
 106 -7.7589553e-02 1.34e+00 4.95e+01  -6.0 3.03e+00  -5.1 5.95e-01 3.99e-02h  1
 107 -7.7778975e-02 7.44e-01 4.84e+01  -6.0 4.11e+00  -5.5 9.46e-01 4.47e-01h  1
 108 -7.7971016e-02 5.58e-01 3.62e+01  -6.0 1.04e+01  -6.0 2.59e-01 2.56e-01h  1
 109 -7.8584319e-02 3.86e-01 5.64e+01  -6.0 2.53e+01  -6.5 2.15e-02 3.92e-01h  1
iter    objective    inf_pr   inf_du lg(mu)  ||d||  lg(rg) alpha_du alpha_pr  ls
 110 -7.9378665e-02 3.42e-01 8.76e+01  -6.0 6.97e+01  -7.0 6.59e-01 2.61e-01h  1
 111 -8.0895984e-02 3.88e-01 1.38e+02  -6.0 3.91e+02  -7.4 7.30e-01 1.45e-01h  1
 112 -8.2075469e-02 5.23e-01 6.77e+01  -6.0 6.55e+01  -7.0 7.74e-01 4.05e-01h  1
 113 -8.2680941e-02 4.97e-01 3.01e+01  -6.0 1.95e+02  -7.5 6.66e-01 1.40e-01h  1
 114 -8.3783067e-02 8.75e-01 3.52e+01  -6.0 9.64e+02  -8.0 1.15e-01 9.82e-02h  1
 115 -8.5870380e-02 8.03e-01 3.82e+01  -6.0 1.57e+02  -7.5 4.88e-01 6.75e-01h  1
 116 -8.7064417e-02 1.04e+00 8.00e+01  -6.0 3.86e+02  -8.0 4.98e-01 3.15e-01h  1
 117 -8.8574075e-02 2.19e+00 1.73e+02  -6.0 1.79e+03  -8.5 2.23e-01 1.17e-01h  1
 118 -8.9192020e-02 1.90e+00 4.54e+02  -6.0 3.88e+02  -8.1 6.76e-01 1.62e-01h  1
 119 -8.9349227e-02 1.76e+00 5.57e+02  -6.0 1.55e+02  -7.6 3.36e-01 8.43e-02h  1
iter    objective    inf_pr   inf_du lg(mu)  ||d||  lg(rg) alpha_du alpha_pr  ls
 120 -9.0528921e-02 1.76e+00 3.41e+02  -6.0 7.47e+02  -8.1 1.51e-01 2.88e-01h  1
 121 -9.2233787e-02 4.11e+00 5.79e+02  -6.0 1.54e+02  -7.7 3.76e-01 8.65e-01h  1
 122 -9.5533895e-02 2.82e+00 4.95e+03  -6.0 4.25e+02  -8.2 3.06e-02 8.83e-01h  1
 123 -9.6418707e-02 2.81e+00 2.06e+03  -6.0 1.27e+03  -8.6 1.81e-01 8.59e-02h  1
 124 -9.7584441e-02 2.31e+00 6.54e+03  -6.0 4.24e+02  -8.2 4.87e-01 2.65e-01h  1
 125 -9.9016119e-02 2.36e+00 7.21e+05  -6.0 1.40e+03  -8.7 3.78e-03 1.14e-01h  1
 126 -1.0109849e-01 1.95e+00 3.75e+05  -6.0 4.23e+02  -8.3 1.58e-01 4.78e-01h  1
 127 -1.0219519e-01 1.35e+01 2.56e+03  -6.0 1.58e+02  -7.8 1.85e-01 1.00e+00h  1
 128 -1.0205298e-01 1.15e+00 4.74e+02  -6.0 2.53e+00  -5.6 6.59e-01 1.00e+00h  1
 129 -1.0220868e-01 7.19e-01 3.17e+02  -6.0 9.31e+00  -6.1 4.25e-01 3.61e-01h  1
iter    objective    inf_pr   inf_du lg(mu)  ||d||  lg(rg) alpha_du alpha_pr  ls
 130 -1.0278431e-01 8.37e-01 1.42e+02  -6.0 4.57e+01  -6.6 4.69e-01 4.88e-01f  1
 131 -1.0298010e-01 6.13e-01 1.02e+02  -6.0 2.61e+01  -7.0 7.88e-01 2.91e-01h  1
 132 -1.0384400e-01 9.03e-01 4.62e+01  -6.0 8.09e+01  -7.5 1.00e+00 8.00e-01h  1
 133 -1.0483233e-01 5.89e-01 2.47e+01  -6.0 2.79e+02  -8.0 6.39e-01 4.41e-01h  1
 134 -1.0888549e-01 1.18e+00 5.18e+01  -6.0 1.81e+03  -8.5 4.95e-01 4.35e-01h  1
 135 -1.0896677e-01 1.18e+00 5.89e+02  -6.0 2.31e+03  -8.1 8.48e-02 4.32e-03h  1
 136 -1.0996732e-01 1.33e+00 3.69e+02  -6.0 1.08e+03  -8.5 1.38e-01 1.54e-01h  1
 137 -1.1073502e-01 1.10e+00 2.22e+02  -6.0 2.81e+02  -8.1 2.79e-01 2.15e-01h  1
 138 -1.1222117e-01 1.78e+00 1.46e+02  -6.0 1.71e+03  -8.6 1.58e-01 1.60e-01h  1
 139 -1.1227460e-01 1.69e+00 2.25e+04  -6.0 1.01e+02  -6.3 7.02e-03 5.00e-02h  1
iter    objective    inf_pr   inf_du lg(mu)  ||d||  lg(rg) alpha_du alpha_pr  ls
 140 -1.1276040e-01 8.64e-01 4.87e+04  -6.0 1.15e+01  -5.9 1.00e+00 4.90e-01h  1
 141 -1.1289690e-01 6.49e-01 2.75e+04  -6.0 1.04e+01  -6.4 3.20e-01 2.49e-01h  1
 142 -1.1307219e-01 3.52e-01 6.37e+03  -6.0 2.28e+00  -6.0 6.24e-01 4.58e-01h  1
 143 -1.1335333e-01 8.47e-02 5.23e+01  -6.0 1.17e+01  -6.4 3.36e-02 1.00e+00h  1
 144 -1.1334945e-01 2.00e-04 1.13e-01  -6.0 9.47e-02  -4.2 1.00e+00 1.00e+00h  1
 145 -1.1335966e-01 6.70e-04 6.17e-03  -6.0 3.08e-01  -4.7 1.00e+00 1.00e+00h  1
 146 -1.1336764e-01 7.30e-05 1.05e-01  -6.0 3.95e-01  -5.2 1.00e+00 8.89e-01H  1
 147 -1.1337792e-01 1.94e-03 4.08e-02  -6.0 1.04e+00  -5.6 1.00e+00 1.00e+00f  1
 148 -1.1343498e-01 2.52e-02 1.93e-01  -6.0 3.13e+00  -6.1 1.00e+00 1.00e+00h  1
 149 -1.1346936e-01 3.42e-02 3.47e+00  -6.0 3.05e+01  -6.6 5.82e-02 4.90e-02h  1
iter    objective    inf_pr   inf_du lg(mu)  ||d||  lg(rg) alpha_du alpha_pr  ls
 150 -1.1371434e-01 1.61e-01 5.71e+00  -6.0 3.00e+01  -7.1 1.00e+00 1.00e+00f  1
 151 -1.1376862e-01 1.90e-01 5.82e+00  -6.0 7.48e+02  -7.6 3.75e-03 4.03e-03h  1
 152 -1.1619704e-01 1.85e+00 5.93e+01  -6.0 4.13e+02  -8.0 9.01e-01 8.17e-01h  1
 153 -1.1710822e-01 1.97e+00 5.68e+01  -6.0 9.92e+02  -8.5 4.15e-01 1.55e-01h  1
 154 -1.1783204e-01 2.41e+00 8.20e+01  -6.0 3.29e+03  -9.0 2.02e-01 5.09e-02h  1
 155 -1.1783501e-01 2.40e+00 7.67e+01  -6.0 2.74e+01  -6.8 9.97e-02 3.66e-03h  1
 156 -1.1805938e-01 1.75e+00 4.29e+01  -6.0 5.13e+01  -7.2 1.00e+00 2.68e-01f  1
 157 -1.1851622e-01 1.15e+00 3.78e+01  -6.0 1.47e+02  -7.7 2.86e-02 3.39e-01h  1
 158 -1.1968537e-01 9.87e-01 3.32e+01  -6.0 4.08e+02  -8.2 2.02e-01 3.86e-01h  1
 159 -1.1982127e-01 6.50e+00 1.30e+02  -6.0 4.73e+01  -6.9 3.26e-02 3.30e-01h  1
iter    objective    inf_pr   inf_du lg(mu)  ||d||  lg(rg) alpha_du alpha_pr  ls
 160 -1.1993231e-01 9.78e+00 1.13e+02  -6.0 1.05e+02  -7.3 1.03e-01 9.96e-02h  1
 161 -1.2016616e-01 1.66e+01 7.46e+01  -6.0 3.76e+01  -6.9 5.74e-01 3.95e-01h  1
 162 -1.2087661e-01 3.74e+00 5.17e+00  -6.0 6.75e+01  -7.4 1.00e+00 1.00e+00h  1
 163 -1.2201027e-01 3.69e+00 6.70e+00  -6.0 1.89e+02  -7.9 7.96e-01 7.90e-01h  1
 164 -1.2251299e-01 3.01e+00 1.29e+03  -6.0 4.35e+02  -8.3 4.09e-01 1.78e-01h  1
 165 -1.2282749e-01 2.80e+00 2.42e+03  -6.0 7.01e+02  -8.8 2.83e-01 6.58e-02h  1
 166 -1.2418492e-01 2.38e+00 3.47e+03  -6.0 1.29e+03  -9.3 5.51e-01 2.57e-01h  1
 167 -1.2456785e-01 2.21e+00 2.04e+03  -6.0 6.02e+02  -8.9 1.03e-01 2.03e-01h  1
 168 -1.2607430e-01 9.91e+01 1.52e+03  -6.0 1.41e+04  -9.3 1.78e-02 1.51e-01h  1
 169 -1.2635892e-01 7.62e+01 3.08e+03  -6.0 1.70e+03  -8.9 1.79e-01 2.77e-01h  1
iter    objective    inf_pr   inf_du lg(mu)  ||d||  lg(rg) alpha_du alpha_pr  ls
 170 -1.2827746e-01 5.35e+01 1.14e+04  -6.0 1.20e+03  -9.4 3.87e-02 3.20e-01h  1
 171 -1.2865305e-01 4.80e+01 8.23e+03  -6.0 5.93e+02  -9.0 1.68e-01 1.04e-01h  1
 172 -1.3111351e-01 3.38e+01 3.26e+06  -6.0 2.80e+03  -9.4 1.98e-03 3.03e-01h  1
 173 -1.3137153e-01 2.95e+01 2.82e+06  -6.0 5.45e+03  -9.9 2.31e-01 1.35e-01h  1
 174 -1.3260235e-01 1.85e+01 1.68e+06  -6.0 1.49e+03  -9.5 8.47e-02 4.03e-01h  1
 175 -1.3265743e-01 1.63e+01 1.49e+06  -6.0 1.94e+02  -7.3 3.42e-02 1.16e-01h  1
 176 -1.3293650e-01 7.78e-01 2.54e+03  -6.0 1.75e+02  -7.7 1.57e-01 1.00e+00h  1
 177 -1.3328841e-01 5.32e-01 1.55e+03  -6.0 1.14e+02  -8.2 1.68e-01 3.79e-01h  1
 178 -1.3368799e-01 6.07e-01 9.94e+02  -6.0 2.78e+02  -8.7 3.90e-01 3.60e-01h  1
 179 -1.3409138e-01 4.66e-01 6.28e+03  -6.0 7.96e+02  -9.2 9.67e-01 3.22e-01h  1
iter    objective    inf_pr   inf_du lg(mu)  ||d||  lg(rg) alpha_du alpha_pr  ls
 180 -1.3424907e-01 5.51e-01 9.74e+03  -6.0 1.24e+02  -7.8 2.54e-01 1.00e+00h  1
 181 -1.3431056e-01 5.23e-01 9.55e+03  -6.0 1.69e+03  -8.3 2.58e-02 1.53e-02h  1
 182 -1.3479572e-01 7.77e-01 3.51e+03  -6.0 3.32e+02  -8.8 4.06e-01 6.49e-01h  1
 183 -1.3512256e-01 1.35e+00 2.07e+03  -6.0 1.41e+03  -9.3 3.27e-01 2.97e-01h  1
 184 -1.3511139e-01 1.33e+00 2.05e+03  -6.0 3.46e+01  -4.3 2.79e-03 1.44e-02h  1
Error in an AMPL evaluation. Run with "halt_on_ampl_error yes" to see details.
Warning: Cutting back alpha due to evaluation error
 185 -1.3511201e-01 1.33e+00 2.05e+03  -6.0 5.65e+01  -2.1 5.73e-03 7.96e-04f  2
 186 -1.3510919e-01 1.29e+00 2.00e+03  -6.0 1.13e+01  -2.6 5.13e-03 2.87e-02h  1
 187 -1.3510738e-01 1.28e+00 1.98e+03  -6.0 1.10e+01  -2.2 9.28e-03 1.09e-02h  1
 188 -1.3510660e-01 1.27e+00 1.96e+03  -6.0 9.81e+00  -1.7 2.92e-02 5.08e-03h  1
 189 -1.3509638e-01 1.27e+00 1.96e+03  -6.0 3.07e+02  -2.2 2.41e-04 9.17e-04h  1
iter    objective    inf_pr   inf_du lg(mu)  ||d||  lg(rg) alpha_du alpha_pr  ls
 190 -1.3509407e-01 1.27e+00 1.95e+03  -6.0 9.15e+00  -1.8 3.29e-03 3.90e-03h  1
 191 -1.3509335e-01 1.26e+00 1.92e+03  -6.0 3.49e+00  -1.4 4.80e-02 2.05e-03h  1
 192 -1.3508830e-01 1.26e+00 1.91e+03  -6.0 1.03e+01  -1.8 4.57e-03 6.31e-03h  1
 193 -1.3507624e-01 1.22e+00 1.83e+03  -6.0 3.38e+00  -1.4 8.46e-02 2.55e-02h  1
 194 -1.3505435e-01 1.17e+00 1.75e+03  -6.0 3.88e+00  -1.9 3.48e-02 4.33e-02h  1
 195 -1.3502833e-01 1.10e+00 1.60e+03  -6.0 5.69e+00  -2.4 1.49e-01 6.46e-02h  1
 196 -1.3470456e-01 3.62e-02 2.41e+02  -6.0 5.70e+00  -2.8 2.10e-01 1.00e+00h  1
 197 -1.3473039e-01 1.11e-02 1.26e+02  -6.0 9.17e-01  -2.4 3.59e-01 7.01e-01h  1
 198 -1.3472683e-01 3.54e-03 5.48e+01  -6.0 2.05e+00  -2.9 5.64e-01 1.00e+00h  1
 199 -1.3472925e-01 1.31e-05 7.70e+00  -6.0 4.86e-02  -3.4 9.03e-01 1.00e+00h  1
iter    objective    inf_pr   inf_du lg(mu)  ||d||  lg(rg) alpha_du alpha_pr  ls
 200 -1.3473515e-01 1.14e-04 5.67e+01  -6.0 1.48e-01  -3.8 2.86e-01 1.00e+00h  1
 201 -1.3475891e-01 8.22e-04 2.08e+00  -6.0 4.29e-01  -4.3 7.40e-01 1.00e+00h  1
 202 -1.3483240e-01 5.27e-03 1.82e+00  -6.0 1.26e+00  -4.8 7.64e-01 1.00e+00h  1
 203 -1.3500720e-01 7.06e-03 8.60e-01  -6.0 3.62e+00  -5.3 9.81e-01 8.30e-01h  1
 204 -1.3511425e-01 5.15e-03 8.90e+00  -6.0 9.00e+00  -5.8 1.00e+00 2.12e-01f  1
 205 -1.3514156e-01 4.73e-02 1.11e+01  -6.0 3.38e+00  -6.2 7.19e-01 4.54e-01f  1
 206 -1.3514830e-01 4.57e-02 3.23e+01  -6.0 4.00e+00  -6.7 1.00e+00 5.24e-02h  1
 207 -1.3515997e-01 6.89e-02 1.10e+01  -6.0 9.45e+00  -7.2 6.52e-01 6.63e-01f  1
 208 -1.3517272e-01 5.80e-03 1.64e-01  -6.0 4.02e+00  -6.8 1.00e+00 9.15e-01f  1
 209 -1.3519306e-01 4.88e-03 1.01e-01  -6.0 1.19e+01  -7.2 1.00e+00 1.00e+00f  1
iter    objective    inf_pr   inf_du lg(mu)  ||d||  lg(rg) alpha_du alpha_pr  ls
 210 -1.3526032e-01 4.65e-02 1.08e+00  -6.0 3.24e+01  -7.7 1.00e+00 1.00e+00h  1
 211 -1.3541487e-01 5.07e-01 1.04e+01  -6.0 1.03e+02  -8.2 1.00e+00 1.00e+00h  1
 212 -1.3557643e-01 1.95e+00 1.52e+02  -6.0 3.95e+02  -8.7 1.00e+00 4.26e-01h  1
 213 -1.3587485e-01 1.43e+00 7.08e+01  -6.0 3.89e+02  -9.1 5.20e-01 4.52e-01h  1
 214 -1.3592373e-01 3.04e+00 6.71e+01  -6.0 1.92e+03  -9.6 7.03e-02 2.79e-02h  1
 215 -1.3649936e-01 2.56e+00 4.75e+01  -6.0 1.37e+03 -10.1 3.78e-01 2.54e-01h  1
 216 -1.3721044e-01 7.87e+00 3.14e+01  -6.0 2.04e+03 -10.6 3.31e-01 3.46e-01h  1
 217 -1.3757773e-01 1.62e+01 2.68e+01  -6.0 4.18e+03    -  1.09e-01 1.98e-01h  1
 218 -1.3767424e-01 1.39e+01 1.69e+01  -6.0 3.28e+03    -  4.01e-01 1.38e-01h  1
 219 -1.3772110e-01 1.23e+01 1.44e+01  -6.0 3.05e+03    -  1.53e-01 1.16e-01h  1
iter    objective    inf_pr   inf_du lg(mu)  ||d||  lg(rg) alpha_du alpha_pr  ls
 220 -1.3811012e-01 9.28e+00 5.92e+01  -6.0 2.63e+03    -  6.78e-03 1.00e+00h  1
 221 -1.3811303e-01 7.40e+00 3.14e+01  -6.0 1.33e+03    -  4.74e-01 2.02e-01h  1
 222 -1.3812559e-01 1.27e+01 8.08e+01  -6.0 1.18e+03    -  1.00e+00 7.32e-01h  1
 223 -1.3846666e-01 2.93e+00 2.80e+02  -6.0 6.51e+02    -  5.27e-01 8.68e-01h  1
 224 -1.3839223e-01 5.33e-01 2.80e+02  -6.0 7.44e+00  -6.5 1.27e-01 9.97e-01h  1
 225 -1.3838387e-01 5.89e-02 3.75e-01  -6.0 7.65e+00  -7.0 1.00e+00 1.00e+00f  1
 226 -1.3831280e-01 2.63e-01 1.65e+00  -6.0 1.31e+01  -7.5 1.00e+00 1.00e+00h  1
 227 -1.3822541e-01 1.98e-01 1.24e+00  -6.0 3.23e+01  -8.0 1.00e+00 1.00e+00h  1
 228 -1.3819129e-01 3.69e-01 2.94e+00  -6.0 1.15e+02  -8.4 1.00e+00 1.00e+00h  1
 229 -1.3821941e-01 1.32e+00 1.02e+01  -6.0 3.76e+02  -8.9 6.16e-01 5.44e-01h  1
iter    objective    inf_pr   inf_du lg(mu)  ||d||  lg(rg) alpha_du alpha_pr  ls
 230 -1.3812187e-01 1.33e+00 9.45e+00  -6.0 1.85e+02  -9.4 1.00e+00 1.00e+00h  1
 231 -1.3818006e-01 1.52e+00 1.03e+03  -6.0 8.91e+02  -9.0 2.14e-01 2.66e-01h  1
 232 -1.3806354e-01 8.61e-01 1.82e+05  -6.0 9.09e+01  -8.5 5.97e-02 1.00e+00h  1
 233 -1.3807621e-01 8.89e-01 1.35e+05  -6.0 1.97e+02  -9.0 7.44e-01 2.56e-01h  1
 234 -1.3804786e-01 1.09e+00 1.76e+02  -6.0 4.34e+02    -  1.68e-01 1.00e+00h  1
 235 -1.3801771e-01 1.33e+00 9.37e+01  -6.0 7.24e+02    -  5.19e-01 4.34e-01h  1
 236 -1.3809130e-01 7.31e-01 2.00e+01  -6.0 1.84e+02    -  7.92e-01 7.78e-01h  1
 237 -1.3798486e-01 1.36e+00 2.70e+01  -6.0 3.33e+02    -  3.88e-01 1.00e+00h  1
 238 -1.3799093e-01 5.09e-01 5.66e+00  -6.0 7.49e+01    -  5.22e-01 1.00e+00h  1
 239 -1.3801095e-01 5.71e-02 8.62e-01  -6.0 4.61e+01    -  1.00e+00 1.00e+00h  1
iter    objective    inf_pr   inf_du lg(mu)  ||d||  lg(rg) alpha_du alpha_pr  ls
 240 -1.3801351e-01 2.18e-02 1.71e-02  -6.0 2.07e+01    -  1.00e+00 1.00e+00h  1
 241 -1.3801569e-01 6.12e-03 2.36e-02  -6.0 1.27e+01    -  1.00e+00 1.00e+00h  1
 242 -1.3801574e-01 3.83e-06 3.58e-06  -6.0 2.77e-01    -  1.00e+00 1.00e+00h  1
 243 -1.3854610e-01 6.26e+00 8.84e+00  -7.5 3.77e+03    -  1.68e-01 1.68e-01h  1
 244 -1.3876216e-01 7.07e+00 1.61e+01  -7.5 4.31e+03    -  5.36e-02 8.38e-02h  1
 245 -1.3906198e-01 5.20e+00 4.61e+01  -7.5 4.11e+02  -9.5 4.98e-01 2.71e-01h  1
 246 -1.3914380e-01 5.23e+00 3.65e+01  -7.5 3.01e+03    -  1.44e-03 6.04e-02h  1
 247 -1.3936841e-01 5.26e+01 3.60e+01  -7.5 8.92e+03    -  6.28e-02 1.91e-01h  1
 248 -1.3942332e-01 4.83e+01 3.33e+01  -7.5 2.20e+03    -  6.01e-02 8.24e-02h  1
 249 -1.3959102e-01 3.47e+01 2.40e+01  -7.5 2.12e+03    -  2.77e-01 2.82e-01h  1
iter    objective    inf_pr   inf_du lg(mu)  ||d||  lg(rg) alpha_du alpha_pr  ls
 250 -1.3986300e-01 1.37e+01 5.90e+01  -7.5 1.76e+03    -  3.61e-01 6.73e-01h  1
 251 -1.3992422e-01 1.24e+01 1.88e+01  -7.5 1.99e+03 -10.0 3.39e-01 9.48e-02h  1
 252 -1.3997003e-01 9.08e+00 4.08e+01  -7.5 1.05e+03    -  2.94e-02 3.12e-01h  1
 253 -1.3998399e-01 8.20e+00 2.79e+01  -7.5 1.86e+03    -  1.93e-01 9.89e-02h  1
 254 -1.4001527e-01 6.49e+00 2.28e+01  -7.5 9.05e+02    -  2.08e-01 2.26e-01h  1
 255 -1.4004210e-01 5.17e+00 2.61e+01  -7.5 8.41e+02    -  6.84e-02 2.14e-01h  1
 256 -1.4012758e-01 2.30e+00 5.33e+01  -7.5 5.65e+02    -  4.89e-01 7.60e-01h  1
 257 -1.4014097e-01 2.00e+00 2.01e+02  -7.5 1.69e+02 -10.5 7.20e-01 1.28e-01h  1
 258 -1.4025067e-01 2.42e+01 2.03e+02  -7.5 1.15e+03    -  1.01e-01 1.00e+00h  1
 259 -1.4027811e-01 2.16e+01 1.99e+02  -7.5 1.70e+03    -  4.78e-01 2.40e-01h  1
iter    objective    inf_pr   inf_du lg(mu)  ||d||  lg(rg) alpha_du alpha_pr  ls
 260 -1.4027860e-01 2.15e+01 2.94e+02  -7.5 5.56e+02 -10.9 6.77e-02 3.64e-03h  1
 261 -1.4032763e-01 1.22e+01 2.36e+02  -7.5 1.08e+03    -  1.98e-01 4.76e-01f  1
 262 -1.4034244e-01 1.07e+01 1.74e+03  -7.5 3.02e+02 -11.4 7.25e-01 1.26e-01h  1
 263 -1.4038490e-01 6.76e+00 2.17e+03  -7.5 6.01e+02 -11.9 1.00e+00 3.67e-01h  1
 264 -1.4043949e-01 7.16e+00 3.41e+02  -7.5 1.61e+03 -12.4 1.21e-01 4.29e-01h  1
 265 -1.4045096e-01 6.73e+00 1.09e+03  -7.5 3.84e+03 -11.9 3.11e-01 6.83e-02h  1
 266 -1.4045475e-01 6.72e+00 4.93e+03  -7.5 5.00e+03    -  1.45e-01 2.06e-02h  1
 267 -1.4047805e-01 7.89e+00 5.26e+03  -7.5 1.03e+03    -  2.07e-02 6.24e-01h  1
 268 -1.4048908e-01 1.13e+01 3.68e+03  -7.5 2.26e+03    -  1.72e-02 2.90e-01h  1
 269 -1.4051075e-01 2.32e+01 1.89e+03  -7.5 2.35e+03    -  3.74e-01 4.81e-01h  1
iter    objective    inf_pr   inf_du lg(mu)  ||d||  lg(rg) alpha_du alpha_pr  ls
 270 -1.4052770e-01 2.62e+01 1.16e+03  -7.5 2.41e+03    -  4.74e-02 3.76e-01h  1
 271 -1.4053446e-01 2.07e+01 7.58e+02  -7.5 1.37e+03    -  3.22e-02 3.30e-01h  1
 272 -1.4055106e-01 2.19e+01 1.03e+02  -7.5 1.34e+03    -  5.07e-02 8.05e-01h  1
 273 -1.4057940e-01 5.97e+01 2.11e+02  -7.5 2.67e+03 -11.5 7.68e-01 6.85e-01h  1
 274 -1.4057745e-01 5.42e+01 1.93e+02  -7.5 1.32e+03    -  3.32e-01 9.51e-02h  1
 275 -1.4057822e-01 2.16e+01 7.73e+01  -7.5 2.28e+02    -  1.99e-03 6.11e-01h  1
 276 -1.4057696e-01 2.49e-03 1.04e+01  -7.5 3.37e+01    -  6.30e-01 1.00e+00h  1
 277 -1.4058992e-01 1.43e+01 2.84e+01  -7.5 9.20e+02 -11.1 1.28e-01 1.00e+00h  1
 278 -1.4059052e-01 1.28e-01 2.42e+00  -7.5 7.05e+01    -  1.24e-01 1.00e+00h  1
 279 -1.4059316e-01 7.03e-01 1.22e+00  -7.5 1.98e+02 -10.7 1.00e+00 1.00e+00h  1
iter    objective    inf_pr   inf_du lg(mu)  ||d||  lg(rg) alpha_du alpha_pr  ls
 280 -1.4061619e-01 5.45e+01 1.90e+02  -7.5 5.95e+03    -  1.48e-01 2.93e-01h  1
 281 -1.4059729e-01 3.82e+01 1.02e+02  -7.5 1.44e+03    -  5.32e-02 1.00e+00h  1
 282 -1.4060447e-01 6.67e+00 1.22e+01  -7.5 5.67e+02 -11.1 1.00e+00 1.00e+00h  1
 283 -1.4061860e-01 2.25e+01 9.21e+01  -7.5 1.12e+03 -11.6 1.17e-01 9.70e-01h  1
 284 -1.4060279e-01 9.61e+00 2.15e+02  -7.5 1.42e+03    -  3.73e-01 1.00e+00H  1
 285 -1.4061959e-01 1.32e+01 2.01e+02  -7.5 2.41e+03    -  3.60e-01 4.74e-01H  1
 286 -1.4061996e-01 9.44e-02 1.62e+01  -7.5 6.42e+01    -  1.00e+00 1.00e+00h  1
 287 -1.4062001e-01 6.64e-04 5.25e-02  -7.5 5.66e+00    -  1.00e+00 1.00e+00h  1
 288 -1.4062001e-01 2.19e-07 1.79e-06  -7.5 1.04e-01    -  1.00e+00 1.00e+00h  1
 289 -1.4062001e-01 2.83e-10 2.17e-12  -7.5 8.31e-05    -  1.00e+00 1.00e+00h  1
iter    objective    inf_pr   inf_du lg(mu)  ||d||  lg(rg) alpha_du alpha_pr  ls
 290 -1.4062327e-01 9.23e-02 2.40e+00  -9.0 2.59e+02    -  2.88e-01 3.04e-01h  1
 291 -1.4063018e-01 2.10e+01 7.95e+01  -9.0 1.17e+05    -  2.17e-02 8.78e-03h  1
 292 -1.4063789e-01 2.77e+01 1.19e+02  -9.0 3.62e+03    -  1.86e-01 2.32e-01h  1
 293 -1.4064254e-01 2.74e+01 1.26e+02  -9.0 4.34e+03    -  2.91e-01 1.62e-01h  1
 294 -1.4064966e-01 4.42e+01 1.33e+02  -9.0 3.43e+03    -  3.20e-01 3.66e-01h  1
 295 -1.4065356e-01 4.07e+01 2.54e+01  -9.0 1.55e+03    -  1.00e-02 8.19e-01h  1
 296 -1.4065068e-01 1.55e-01 7.70e+00  -9.0 1.02e+02    -  4.01e-02 1.00e+00h  1
 297 -1.4065131e-01 8.47e-02 7.37e-01  -9.0 6.42e+01    -  1.00e+00 1.00e+00h  1
 298 -1.4065129e-01 2.12e-02 8.98e-02  -9.0 3.22e+01    -  1.00e+00 1.00e+00h  1
 299 -1.4065129e-01 6.76e-08 1.75e-05  -9.0 3.78e-02    -  1.00e+00 1.00e+00h  1
iter    objective    inf_pr   inf_du lg(mu)  ||d||  lg(rg) alpha_du alpha_pr  ls
 300 -1.4065129e-01 2.83e-10 2.60e-12  -9.0 2.82e-05    -  1.00e+00 1.00e+00h  1

Number of Iterations....: 300

                                   (scaled)                 (unscaled)
Objective...............:  -1.4065129089312040e-01   -1.4065129089312040e-01
Dual infeasibility......:   2.6011415243942793e-12    2.6011415243942793e-12
Constraint violation....:   2.8258606652592499e-10    2.8258606652592499e-10
Complementarity.........:   9.0909098743981632e-10    9.0909098743981632e-10
Overall NLP error.......:   9.0909098743981632e-10    9.0909098743981632e-10


Number of objective function evaluations             = 482
Number of objective gradient evaluations             = 301
Number of equality constraint evaluations            = 483
Number of inequality constraint evaluations          = 483
Number of equality constraint Jacobian evaluations   = 305
Number of inequality constraint Jacobian evaluations = 305
Number of Lagrangian Hessian evaluations             = 300
Total CPU secs in IPOPT (w/o function evaluations)   =    147.844
Total CPU secs in NLP function evaluations           =      5.172

EXIT: Optimal Solution Found.
